SAT
-76 -8 -98 -19 -35 10 -93 -92 -29 -65 -57 59 -90 96 -91 73 -13 60 47 -44 5 -100 61 50 15 33 -87 -2 -58 -84 4 -55 -18 -70 97 -72 -68 11 48 -46 -20 36 53 99 -39 -9 -94 -71 86 14 62 -85 -23 32 -43 -3 79 31 12 -30 56 -82 -28 74 -41 -75 17 -63 -83 34 95 16 49 54 -88 -7 -25 78 -6 -45 -22 -21 27 -38 -24 -69 -89 -40 -51 -64 -80 -37 -66 1 26 -52 42 -77 -67 81 0
